%Number of test platforms
n_platforms = 5;

%Number of force sensor types
%n_force_sensor_types = 5;

%Types of force sensors in platforms
% force_sensor_types = ["simple_pressure_sensor","capacitive_resistive_flexible_force_sensor","piezoelectric","strain_gauge_based","other"];

%Thresholds
force_sensor_presence    = true;
min_tactile_sensor_count = 100;
min_memory_fused         = 400;
min_latency              = 5;
max_latency              = 200;
req_force_plfm_type      = 3;

platforms = {1,2,3,4,5};

curr_memory_availability=[10,40,50,700,100];